924 700 406 695 494 84 594 0 173 758
950 124 450 610 211 392 93 739 812 877
0 974 850 437 728 142 683 770 298 344
620 529 75 92 186 0 114 374 436 494
556 884 650 809 20 759 186 257 744 0
675 321 744 884 591 228 0 436 506 854
140 458 324 761 298 1020 852 84 250 529
888 378 614 0 738 213 768 932 386 266
40 800 243 990 378 640 512 230 332 950
378 98 92 604 324 431 257 198 869 670
430 765 176 700 800 360 939 506 111 872
266 386 98 788 1020 932 705 850 583 176
512 620 587 952 32 556 424 324 686 60
812 758 0 507 432 321 368 670 765 604
728 0 531 368 649 587 321 140 18 437
